10
14
0 40 126 103 62 67 47 24 109 93 112 35 83 118
18
0 38 117 34 3 43 41 50 59 119 52 48 57 71 90 98 73 74
10
0 70 16 30 99 18 42 88 97 31
21
0 129 79 45 19 20 32 92 36 21 46 39 22 121 54 13 9 66 95 101 5
10
0 15 4 10 33 26 23 78 91 72
11
0 127 115 94 86 11 64 55 56 8 51
16
0 44 75 108 60 128 123 63 68 85 87 25 6 96 69 106
16
0 49 17 7 107 113 125 29 58 89 124 84 65 77 120 12
11
0 104 61 111 116 27 114 82 2 14 28
12
0 1 53 105 37 80 76 102 81 100 122 110
